//Number of items      		
148
//Bin Capacity      
1000
//Known Best Solution  		
64
//Weight of Item
     800         1
     796         1
     788         1
     777         1
     774         1
     773         1
     769         1
     753         1
     751         1
     748         1
     741         1
     736         1
     731         1
     726         1
     717         1
     716         1
     714         1
     708         1
     707         1
     699         1
     693         1
     690         2
     689         1
     688         1
     683         1
     681         3
     679         1
     667         1
     659         1
     656         1
     651         1
     649         1
     644         1
     630         1
     629         1
     615         1
     599         1
     584         1
     564         1
     561         1
     558         1
     552         1
     531         1
     526         1
     525         1
     523         1
     518         1
     517         1
     515         1
     513         1
     512         1
     503         3
     502         1
     500         2
     499         1
     498         1
     493         2
     487         1
     484         1
     476         1
     470         1
     462         1
     453         1
     449         1
     448         1
     446         1
     440         1
     439         1
     438         1
     434         1
     433         1
     431         2
     424         1
     410         1
     405         1
     404         1
     403         1
     378         1
     377         1
     372         1
     369         1
     366         1
     360         1
     358         1
     356         1
     345         1
     332         1
     321         1
     320         1
     308         1
     294         1
     291         1
     290         1
     285         1
     282         1
     273         1
     269         1
     263         1
     260         2
     258         1
     252         1
     238         1
     237         1
     234         1
     226         1
     225         1
     218         1
     211         1
     200         1
     196         2
     195         1
     191         1
     179         1
     173         1
     169         1
     158         1
     153         1
     148         1
     146         1
     142         1
     137         1
     136         1
     132         1
     131         1
     123         1
     120         1
     117         1
     106         1
     102         1
     100         1
      98         1
      94         1
      91         1
      89         1
      88         2
      75         1
      74         1
      68         1
      48         1
      46         1
      45         2
      39         1
      29         1
      28         1
      27         1
      21         1
      15         1
      12         1